5 42 28 69 62 52 65 78 79 76 53 85 61 59 99 38 15 23 39 36 96 43 93 91 89 1 66 48 17 58 
27 83 44 95 14 98 88 30 11 82 64 7 86 16 57 6 33 8 97 13 50 54 55 77 24 25 74 56 4 80 68 35 
92 72 2 47 21 67 31 19 18 81 87 94 41 40 9 45 46 100 37 70 32 60 
63 12 71 51 29 73 75 22 84 49 34 3 26 20 10 
90 

